NAME: map2_180
TYPE: TSP
COMMENT: autogenerated using a wonderful map creator
DIMENSION: 210
EDGE_WEIGHT_TYPE: EUC_2D
NODE_COORD_SECTION
1 34.0 126.0
2 35.0 126.0
3 36.0 126.0
4 37.0 126.0
5 38.0 126.0
6 2.0 39.0
7 2.0 38.0
8 88.0 2.0
9 87.0 2.0
10 86.0 2.0
11 85.0 2.0
12 84.0 2.0
13 126.0 75.0
14 126.0 74.0
15 126.0 73.0
16 39.0 126.0
17 40.0 126.0
18 41.0 126.0
19 42.0 126.0
20 43.0 126.0
21 2.0 37.0
22 2.0 36.0
23 2.0 35.0
24 83.0 2.0
25 82.0 2.0
26 81.0 2.0
27 80.0 2.0
28 79.0 2.0
29 126.0 72.0
30 126.0 71.0
31 34.0 127.0
32 35.0 127.0
33 36.0 127.0
34 37.0 127.0
35 38.0 127.0
36 1.0 39.0
37 1.0 38.0
38 88.0 1.0
39 87.0 1.0
40 86.0 1.0
41 85.0 1.0
42 84.0 1.0
43 127.0 75.0
44 127.0 74.0
45 127.0 73.0
46 39.0 127.0
47 40.0 127.0
48 41.0 127.0
49 42.0 127.0
50 43.0 127.0
51 1.0 37.0
52 1.0 36.0
53 1.0 35.0
54 83.0 1.0
55 82.0 1.0
56 81.0 1.0
57 80.0 1.0
58 79.0 1.0
59 127.0 72.0
60 127.0 71.0
61 89.0 59.0
62 64.0 5.0
63 121.0 94.0
64 69.0 56.0
65 78.0 68.0
66 126.0 62.0
67 36.0 7.0
68 16.0 38.0
69 88.0 109.0
70 5.0 1.0
71 63.0 89.0
72 57.0 112.0
73 64.0 41.0
74 122.0 113.0
75 39.0 51.0
76 17.0 85.0
77 8.0 82.0
78 48.0 8.0
79 100.0 110.0
80 43.0 85.0
81 112.0 84.0
82 6.0 84.0
83 42.0 50.0
84 24.0 99.0
85 37.0 26.0
86 17.0 23.0
87 20.0 49.0
88 120.0 115.0
89 15.0 126.0
90 38.0 18.0
91 25.0 18.0
92 102.0 2.0
93 35.0 101.0
94 63.0 20.0
95 59.0 68.0
96 71.0 51.0
97 122.0 117.0
98 77.0 94.0
99 39.0 3.0
100 27.0 102.0
101 35.0 30.0
102 90.0 30.0
103 74.0 43.0
104 100.0 7.0
105 116.0 58.0
106 20.0 26.0
107 37.0 30.0
108 124.0 28.0
109 38.0 68.0
110 41.0 30.0
111 43.0 91.0
112 96.0 94.0
113 117.0 62.0
114 22.0 80.0
115 117.0 34.0
116 80.0 76.0
117 85.0 127.0
118 66.0 123.0
119 115.0 107.0
120 6.0 47.0
121 27.0 15.0
122 112.0 65.0
123 80.0 39.0
124 19.0 20.0
125 18.0 119.0
126 124.0 103.0
127 59.0 56.0
128 28.0 50.0
129 56.0 11.0
130 46.0 40.0
131 74.0 56.0
132 86.0 85.0
133 112.0 113.0
134 104.0 45.0
135 115.0 54.0
136 59.0 86.0
137 50.0 92.0
138 87.0 56.0
139 115.0 72.0
140 42.0 88.0
141 87.0 65.0
142 48.0 12.0
143 79.0 27.0
144 85.0 113.0
145 60.0 123.0
146 109.0 34.0
147 42.0 8.0
148 89.0 92.0
149 13.0 2.0
150 24.0 57.0
151 58.0 34.0
152 64.0 47.0
153 24.0 11.0
154 59.0 97.0
155 42.0 26.0
156 116.0 94.0
157 56.0 107.0
158 53.0 56.0
159 47.0 113.0
160 102.0 3.0
161 54.0 18.0
162 21.0 79.0
163 92.0 20.0
164 10.0 124.0
165 62.0 107.0
166 61.0 87.0
167 41.0 84.0
168 87.0 106.0
169 62.0 116.0
170 125.0 99.0
171 63.0 60.0
172 38.0 6.0
173 119.0 3.0
174 23.0 51.0
175 20.0 119.0
176 38.0 70.0
177 91.0 51.0
178 110.0 119.0
179 43.0 29.0
180 51.0 106.0
181 28.0 120.0
182 114.0 34.0
183 103.0 98.0
184 49.0 97.0
185 84.0 39.0
186 53.0 97.0
187 36.0 26.0
188 90.0 61.0
189 64.0 42.0
190 28.0 22.0
191 53.0 106.0
192 122.0 4.0
193 119.0 106.0
194 27.0 23.0
195 116.0 34.0
196 74.0 92.0
197 17.0 49.0
198 122.0 31.0
199 100.0 65.0
200 78.0 62.0
201 57.0 39.0
202 60.0 120.0
203 26.0 97.0
204 62.0 29.0
205 119.0 26.0
206 82.0 41.0
207 67.0 89.0
208 69.0 86.0
209 93.0 71.0
210 53.0 108.0
211 93.0 34.0
212 127.0 36.0
213 53.0 117.0
214 80.0 43.0
215 117.0 10.0
216 80.0 116.0
217 10.0 57.0
218 100.0 24.0
219 8.0 69.0
220 98.0 124.0
221 101.0 120.0
222 70.0 32.0
223 63.0 2.0
224 100.0 51.0
225 43.0 81.0
226 12.0 112.0
227 12.0 57.0
228 4.0 71.0
229 36.0 69.0
230 105.0 123.0
231 117.0 88.0
232 56.0 26.0
233 62.0 42.0
234 53.0 103.0
235 10.0 13.0
236 29.0 48.0
237 46.0 64.0
238 4.0 101.0
239 21.0 117.0
240 57.0 27.0
START_DEPOT_SECTION
1
2
3
4
5
6
7
8
9
10
11
12
13
14
15
16
17
18
19
20
21
22
23
24
25
26
27
28
29
30
-1
END_DEPOT_SECTION
31
32
33
34
35
36
37
38
39
40
41
42
43
44
45
46
47
48
49
50
51
52
53
54
55
56
57
58
59
60
-1
EOF
